18
11 16
11 14
11 7
11 1
11 8
11 17
11 15
16 7
16 12
16 3
16 4
16 9
16 10
4 7
4 8
4 13
4 14
4 6
4 2
7 12
7 2
7 5
7 1
1 3
1 6
1 5
1 13
1 12
3 0
3 14
3 10
3 13
3 9
8 2
8 9
8 5
8 15
8 12
12 2
12 17
12 0
2 9
2 6
2 14
5 6
5 13
5 17
5 0
6 17
6 14
6 10
13 17
13 15
13 0
10 15
10 0
10 9
10 14
15 9
15 14
15 17
17 0
9 0
